SDVRP instances/custom_instances/p02_1_splitx10_0.vrp
NAME:p02_1_splitx10_
BEST_KNOWN: 0
COMMENT: 0
DIMENSION: 378
CAPACITY: 1400
EDGE_WEIGHT_FORMAT: FUNCTION
EDGE_WEIGHT_TYPE: EXACT_2D
NODE_COORD_SECTION
1 0.00000 0.00000
2 13 31
3 13 31
4 13 31
5 13 31
6 35 -44
7 46 -49
8 46 -49
9 46 -49
10 46 -49
11 46 -49
12 46 -49
13 -37 34
14 -37 34
15 -37 34
16 -37 34
17 -37 34
18 -37 34
19 8 -47
20 8 -47
21 8 -47
22 8 -47
23 8 -47
24 8 -47
25 8 -47
26 8 -47
27 14 25
28 14 25
29 14 25
30 14 25
31 14 25
32 14 25
33 -2 48
34 -2 48
35 -2 48
36 -2 48
37 16 17
38 16 17
39 16 17
40 16 17
41 16 17
42 -6 -47
43 -6 -47
44 -20 -18
45 -20 -18
46 -20 -18
47 -20 -18
48 -20 -18
49 -20 -18
50 -22 31
51 -22 31
52 -22 31
53 -22 31
54 -22 31
55 -22 31
56 -22 31
57 -22 31
58 41 15
59 41 15
60 41 15
61 -32 40
62 -32 40
63 -32 40
64 -32 40
65 -32 40
66 -32 40
67 -32 40
68 -21 39
69 -21 39
70 -21 39
71 -21 39
72 -21 39
73 -21 39
74 -21 39
75 7 12
76 7 12
77 7 12
78 7 12
79 45 -35
80 45 -35
81 45 -35
82 45 -35
83 45 -35
84 45 -35
85 45 -35
86 -45 -19
87 -45 -19
88 -45 -19
89 -45 -19
90 -45 -19
91 -45 -19
92 -1 2
93 -1 2
94 -1 2
95 -1 2
96 -1 2
97 -1 2
98 -2 46
99 -2 46
100 -2 46
101 -2 46
102 43 -41
103 43 -41
104 43 -41
105 43 -41
106 43 -41
107 13 28
108 13 28
109 13 28
110 13 28
111 13 28
112 13 28
113 33 -16
114 33 -16
115 33 -16
116 33 -16
117 2 50
118 2 50
119 2 50
120 2 50
121 2 50
122 2 50
123 2 50
124 29 -31
125 32 49
126 32 49
127 -50 13
128 -50 13
129 -50 13
130 -50 13
131 -50 13
132 -50 13
133 -35 -25
134 -35 -25
135 -35 -25
136 -35 -25
137 -35 -25
138 -35 -25
139 -1 -50
140 -1 -50
141 -1 -50
142 -1 -50
143 -1 -50
144 -1 -50
145 -1 -50
146 8 -46
147 8 -46
148 8 -46
149 8 -46
150 8 -46
151 8 -46
152 8 -46
153 -36 -21
154 -36 -21
155 -36 -21
156 -26 -33
157 -26 -33
158 -26 -33
159 -26 -33
160 -26 -33
161 -26 -33
162 -1 22
163 -1 22
164 -1 22
165 -1 22
166 22 4
167 22 4
168 22 4
169 22 4
170 22 4
171 22 4
172 22 4
173 -21 17
174 -21 17
175 -21 17
176 -21 17
177 -21 17
178 -13 43
179 -13 43
180 -13 43
181 -13 43
182 1 39
183 1 39
184 1 39
185 1 39
186 -20 18
187 -20 18
188 -20 18
189 27 -45
190 27 -45
191 27 -45
192 27 -45
193 27 -45
194 27 -45
195 27 -45
196 -4 30
197 -4 30
198 -4 30
199 -21 -14
200 -21 -14
201 -21 -14
202 -21 -14
203 -21 -14
204 -21 -14
205 -46 -13
206 -46 -13
207 -46 -13
208 -46 -13
209 -46 -13
210 -46 -13
211 -47 34
212 -47 34
213 -47 34
214 -42 -38
215 -42 -38
216 -42 -38
217 -42 -38
218 -14 -48
219 -14 -48
220 -14 -48
221 -14 -48
222 -4 -31
223 -4 -31
224 -4 -31
225 -4 -31
226 10 33
227 10 33
228 10 33
229 10 33
230 19 9
231 19 9
232 -43 -29
233 -43 -29
234 -43 -29
235 -43 -29
236 -43 -29
237 -43 -29
238 -37 -16
239 -37 -16
240 -37 -16
241 -37 -16
242 -37 -16
243 -37 -16
244 -37 -16
245 -1 35
246 -1 35
247 -1 35
248 -1 35
249 27 19
250 27 19
251 27 19
252 27 19
253 27 19
254 27 19
255 -39 -17
256 -39 -17
257 -39 -17
258 -39 -17
259 -39 -17
260 -39 -17
261 -10 26
262 -10 26
263 -10 26
264 -10 26
265 -10 26
266 -10 26
267 -10 26
268 -8 -2
269 -8 -2
270 -8 -2
271 -8 -2
272 -8 -2
273 -8 -2
274 -8 -2
275 -12 -24
276 -12 -24
277 -12 -24
278 -12 -24
279 -1 -44
280 -1 -44
281 -1 -44
282 -1 -44
283 -17 13
284 -17 13
285 -17 13
286 -17 13
287 -17 13
288 -17 13
289 47 -30
290 47 -30
291 47 -30
292 -4 16
293 -4 16
294 -4 16
295 -4 16
296 -4 16
297 -4 16
298 13 36
299 13 36
300 13 36
301 13 36
302 13 36
303 13 36
304 13 30
305 13 30
306 13 30
307 13 30
308 13 30
309 13 30
310 13 30
311 13 30
312 -27 -27
313 -27 -27
314 -27 -27
315 -27 -27
316 -27 -27
317 -27 -27
318 -27 -27
319 -27 -27
320 45 -46
321 45 -46
322 45 -46
323 45 -46
324 45 -46
325 45 -46
326 45 -46
327 23 15
328 23 15
329 23 15
330 23 15
331 23 15
332 -1 -49
333 -1 -49
334 -1 -49
335 -1 -49
336 17 18
337 17 18
338 43 -40
339 43 -40
340 43 -40
341 14 32
342 14 32
343 14 32
344 14 32
345 14 32
346 8 35
347 8 35
348 8 35
349 -10 -28
350 -10 -28
351 -10 -28
352 -10 -28
353 -10 -28
354 -10 -28
355 43 34
356 43 34
357 43 34
358 43 34
359 43 34
360 43 34
361 -12 -23
362 -12 -23
363 -12 -23
364 -12 -23
365 -12 -23
366 -12 -23
367 -8 17
368 -8 17
369 -8 17
370 -8 17
371 -8 17
372 25 -43
373 25 -43
374 25 -43
375 25 -43
376 41 23
377 41 23
378 41 23
DEMAND_SECTION
1 0
2 140
3 70
4 14
5 6
6 280
7 280
8 70
9 14
10 14
11 14
12 8
13 140
14 14
15 14
16 14
17 14
18 4
19 280
20 140
21 70
22 14
23 14
24 14
25 14
26 4
27 280
28 140
29 14
30 14
31 14
32 8
33 140
34 70
35 14
36 6
37 140
38 70
39 14
40 14
41 2
42 280
43 70
44 280
45 140
46 14
47 14
48 14
49 8
50 280
51 140
52 70
53 14
54 14
55 14
56 14
57 4
58 280
59 140
60 70
61 280
62 280
63 70
64 14
65 14
66 14
67 8
68 140
69 70
70 14
71 14
72 14
73 14
74 4
75 280
76 280
77 70
78 10
79 280
80 140
81 70
82 14
83 14
84 14
85 8
86 280
87 280
88 70
89 14
90 14
91 2
92 280
93 280
94 70
95 14
96 14
97 12
98 280
99 280
100 70
101 10
102 280
103 280
104 14
105 14
106 12
107 280
108 70
109 14
110 14
111 14
112 8
113 280
114 280
115 70
116 10
117 280
118 140
119 70
120 14
121 14
122 14
123 8
124 280
125 140
126 70
127 140
128 70
129 14
130 14
131 14
132 8
133 280
134 140
135 70
136 14
137 14
138 2
139 280
140 70
141 14
142 14
143 14
144 14
145 4
146 280
147 140
148 70
149 14
150 14
151 14
152 8
153 280
154 280
155 140
156 280
157 140
158 14
159 14
160 14
161 8
162 280
163 280
164 70
165 10
166 140
167 70
168 14
169 14
170 14
171 14
172 4
173 280
174 280
175 70
176 14
177 6
178 280
179 280
180 70
181 10
182 280
183 140
184 70
185 10
186 280
187 280
188 140
189 280
190 140
191 70
192 14
193 14
194 14
195 8
196 280
197 140
198 10
199 140
200 14
201 14
202 14
203 14
204 4
205 280
206 140
207 70
208 14
209 14
210 2
211 280
212 70
213 10
214 280
215 14
216 14
217 12
218 280
219 70
220 14
221 6
222 140
223 14
224 14
225 12
226 280
227 14
228 14
229 12
230 140
231 70
232 280
233 70
234 14
235 14
236 14
237 8
238 280
239 140
240 14
241 14
242 14
243 14
244 4
245 280
246 280
247 70
248 10
249 280
250 280
251 70
252 14
253 14
254 12
255 140
256 70
257 14
258 14
259 14
260 8
261 280
262 140
263 70
264 14
265 14
266 14
267 8
268 280
269 140
270 70
271 14
272 14
273 14
274 8
275 280
276 14
277 14
278 2
279 280
280 280
281 70
282 10
283 280
284 140
285 14
286 14
287 14
288 8
289 140
290 70
291 10
292 280
293 140
294 14
295 14
296 14
297 8
298 280
299 280
300 70
301 14
302 14
303 2
304 280
305 280
306 70
307 14
308 14
309 14
310 14
311 4
312 280
313 280
314 70
315 14
316 14
317 14
318 14
319 4
320 280
321 70
322 14
323 14
324 14
325 14
326 4
327 280
328 70
329 14
330 14
331 12
332 280
333 140
334 70
335 10
336 280
337 10
338 280
339 280
340 10
341 280
342 280
343 70
344 14
345 6
346 280
347 70
348 10
349 140
350 14
351 14
352 14
353 14
354 4
355 280
356 140
357 70
358 14
359 14
360 12
361 280
362 140
363 14
364 14
365 14
366 8
367 280
368 280
369 14
370 14
371 12
372 280
373 14
374 14
375 2
376 280
377 140
378 10
DEPOT_SECTION
1
-1
EOF