SDVRP instances/custom_instances/p02_1_splitx10_0.sol
377 -2 4 3 1 341 340 344 343 342 309 308 310 303 305 307 306 110 109 107 -28 27 29 31 30 125 124 354 358 356 357 355 359 377 376 375 -38 39 37 40 36 336 335 26 106 111 108 304 -56 49 52 50 53 55 54 51 15 14 17 13 12 16 210 211 212 126 130 129 131 127 128 -71 68 72 73 69 70 67 60 66 64 65 61 62 63 186 187 -74 77 76 75 161 163 162 164 -92 94 95 91 93 96 -102 104 103 105 101 339 79 80 83 78 82 81 84 290 288 289 -115 112 113 114 58 59 57 166 167 165 169 168 170 171 -122 120 117 121 118 116 119 33 179 177 178 180 261 -123 5 194 192 189 188 190 372 374 371 373 -143 142 138 140 141 139 144 334 333 331 332 280 281 278 -145 150 148 146 149 147 151 18 22 25 24 23 19 20 21 279 -154 152 153 257 254 256 259 258 243 241 240 237 242 239 238 -160 156 159 158 155 157 316 314 318 312 313 315 311 317 198 200 199 203 202 201 -183 182 184 181 35 34 32 97 98 100 99 246 247 -185 174 172 173 175 176 287 282 284 283 285 286 -193 191 8 11 6 7 9 10 320 323 324 319 321 322 325 337 338 -215 213 216 214 234 232 233 236 235 231 137 132 136 133 134 135 270 268 -222 223 224 221 42 41 220 217 219 218 349 350 352 348 351 353 361 365 362 363 -228 227 226 225 300 302 299 301 298 297 345 347 346 -230 229 326 330 329 328 327 248 251 249 252 250 253 -244 245 196 197 195 266 260 262 263 265 264 -255 87 90 85 89 86 88 205 206 208 207 209 204 271 269 -267 272 273 47 45 48 46 43 44 274 275 277 276 360 364 -294 295 292 293 296 291 369 370 366 368 367 0 





OBJ=
2367.112
BEST_KNOWN=
0.000